
Gurobi 6.5.2 (win64) logging started 07/23/16 03:03:53


Gurobi 6.5.2 (win64) logging started 07/23/16 03:03:53

Optimize a model with 14950 rows, 1221 columns and 32707 nonzeros
Coefficient statistics:
  Matrix range    [4e-06, 1e+03]
  Objective range [1e+00, 1e+00]
  Bounds range    [1e+00, 1e+00]
  RHS range       [1e+00, 1e+03]
Found heuristic solution: objective 405.323
Presolve removed 14925 rows and 1196 columns
Presolve time: 0.01s
Presolved: 25 rows, 25 columns, 77 nonzeros
Variable types: 25 continuous, 0 integer (0 binary)

Root relaxation: objective 1.631388e+02, 17 iterations, 0.00 seconds

    Nodes    |    Current Node    |     Objective Bounds      |     Work
 Expl Unexpl |  Obj  Depth IntInf | Incumbent    BestBd   Gap | It/Node Time

*    0     0               0     163.1387602  163.13876  0.00%     -    0s

Explored 0 nodes (17 simplex iterations) in 0.01 seconds
Thread count was 8 (of 8 available processors)

Optimal solution found (tolerance 1.00e-04)
Best objective 1.631387601596e+02, best bound 1.631387601596e+02, gap 0.0%

Wrote requested result file 'H2\instance19\\Results19EC_Sol2.lp'

